c b=7,c=129
p cnf 21 28
7 -14 0
7 -21 0
-7 14 0
-7 21 0
6 -13 0
6 -20 0
-6 13 0
-6 20 0
5 -12 0
5 -19 0
-5 12 0
-5 19 0
4 -11 0
4 -18 0
-4 11 0
-4 18 0
3 -10 0
3 -17 0
-3 10 0
-3 17 0
2 -9 0
2 -16 0
-2 9 0
-2 16 0
1 -8 0
1 -15 0
-1 8 0
-1 15 0
